VRPTWMS/instances/mip/fuel/Comparison/N4-C_DV100-C_SV30_F6_13_No_1.lp
\ N4-C_DV100-C_SV30_F6_13

Minimize
  131500.0 x_d0_c1 + 131500.0 z_d0_c1 + 22400.0 x_d0_c2 + 22400.0 z_d0_c2 + 300000.0 x_d0_c3 + 300000.0 z_d0_c3 + 253200.0 x_d0_c4 + 253200.0 z_d0_c4 + 114000.0 x_c1_c2 + 114000.0 x_c2_c1 + 114000.0 z_c1_c2 + 114000.0 z_c2_c1 + 404600.0 x_c1_c3 + 404600.0 x_c3_c1 + 404600.0 z_c1_c3 + 404600.0 z_c3_c1 + 121700.0 x_c1_c4 + 121700.0 x_c4_c1 + 121700.0 z_c1_c4 + 121700.0 z_c4_c1 + 304800.0 x_c2_c3 + 304800.0 x_c3_c2 + 304800.0 z_c2_c3 + 304800.0 z_c3_c2 + 235400.0 x_c2_c4 + 235400.0 x_c4_c2 + 235400.0 z_c2_c4 + 235400.0 z_c4_c2 + 513100.0 x_c3_c4 + 513100.0 x_c4_c3 + 513100.0 z_c3_c4 + 513100.0 z_c4_c3 + 131500.0 x_c1_dN + 131500.0 z_c1_dN + 22400.0 x_c2_dN + 22400.0 z_c2_dN + 300000.0 x_c3_dN + 300000.0 z_c3_dN + 253200.0 x_c4_dN + 253200.0 z_c4_dN + 1.0E7 x_d0_c1 + 1.0E7 z_d0_c1 + 1.0E7 x_d0_c2 + 1.0E7 z_d0_c2 + 1.0E7 x_d0_c3 + 1.0E7 z_d0_c3 + 1.0E7 x_d0_c4 + 1.0E7 z_d0_c4
Subject To
  Successor_DV_c1: x_c1_c2 + x_c1_c3 + x_c1_c4 + x_c1_dN = 1
  Successor_DV_c2: x_c2_c1 + x_c2_c3 + x_c2_c4 + x_c2_dN = 1
  Successor_DV_c3: x_c3_c1 + x_c3_c2 + x_c3_c4 + x_c3_dN = 1
  Successor_DV_c4: x_c4_c1 + x_c4_c2 + x_c4_c3 + x_c4_dN = 1
  Successor_SV_c1: z_c1_c2 + z_c1_c3 + z_c1_c4 + z_c1_dN <= 1
  Successor_SV_c2: z_c2_c1 + z_c2_c3 + z_c2_c4 + z_c2_dN <= 1
  Successor_SV_c3: z_c3_c1 + z_c3_c2 + z_c3_c4 + z_c3_dN <= 1
  Successor_SV_c4: z_c4_c1 + z_c4_c2 + z_c4_c3 + z_c4_dN <= 1
  Flow_DV_c1: x_d0_c1 + x_c2_c1 + x_c3_c1 + x_c4_c1 - x_c1_dN - x_c1_c2 - x_c1_c3 - x_c1_c4 = 0
  Flow_DV_c2: x_d0_c2 + x_c1_c2 + x_c3_c2 + x_c4_c2 - x_c2_dN - x_c2_c1 - x_c2_c3 - x_c2_c4 = 0
  Flow_DV_c3: x_d0_c3 + x_c1_c3 + x_c2_c3 + x_c4_c3 - x_c3_dN - x_c3_c1 - x_c3_c2 - x_c3_c4 = 0
  Flow_DV_c4: x_d0_c4 + x_c1_c4 + x_c2_c4 + x_c3_c4 - x_c4_dN - x_c4_c1 - x_c4_c2 - x_c4_c3 = 0
  Flow_SV_c1: z_d0_c1 + z_c2_c1 + z_c3_c1 + z_c4_c1 - z_c1_dN - z_c1_c2 - z_c1_c3 - z_c1_c4 = 0
  Flow_SV_c2: z_d0_c2 + z_c1_c2 + z_c3_c2 + z_c4_c2 - z_c2_dN - z_c2_c1 - z_c2_c3 - z_c2_c4 = 0
  Flow_SV_c3: z_d0_c3 + z_c1_c3 + z_c2_c3 + z_c4_c3 - z_c3_dN - z_c3_c1 - z_c3_c2 - z_c3_c4 = 0
  Flow_SV_c4: z_d0_c4 + z_c1_c4 + z_c2_c4 + z_c3_c4 - z_c4_dN - z_c4_c1 - z_c4_c2 - z_c4_c3 = 0
  travelDV_d0_c1: tauD_d0 - tauD_c1 + 1032875.0 x_d0_c1 <= 1000000.0
  travelDV_d0_c2: tauD_d0 - tauD_c2 + 1005600.0 x_d0_c2 <= 1000000.0
  travelDV_d0_c3: tauD_d0 - tauD_c3 + 1075000.0 x_d0_c3 <= 1000000.0
  travelDV_d0_c4: tauD_d0 - tauD_c4 + 1063300.0 x_d0_c4 <= 1000000.0
  travelDV_c1_c2: tauD_c1 - tauD_c2 + 1088500.0 x_c1_c2 + 80000.0 p_1 <= 1000000.0
  travelDV_c1_c3: tauD_c1 - tauD_c3 + 1161150.0 x_c1_c3 + 80000.0 p_1 <= 1000000.0
  travelDV_c1_c4: tauD_c1 - tauD_c4 + 1090425.0 x_c1_c4 + 80000.0 p_1 <= 1000000.0
  travelDV_c2_c1: tauD_c2 - tauD_c1 + 1078500.0 x_c2_c1 + 80000.0 p_2 <= 1000000.0
  travelDV_c2_c3: tauD_c2 - tauD_c3 + 1126200.0 x_c2_c3 + 80000.0 p_2 <= 1000000.0
  travelDV_c2_c4: tauD_c2 - tauD_c4 + 1108850.0 x_c2_c4 + 80000.0 p_2 <= 1000000.0
  travelDV_c3_c1: tauD_c3 - tauD_c1 + 1171150.0 x_c3_c1 + 80000.0 p_3 <= 1000000.0
  travelDV_c3_c2: tauD_c3 - tauD_c2 + 1146200.0 x_c3_c2 + 80000.0 p_3 <= 1000000.0
  travelDV_c3_c4: tauD_c3 - tauD_c4 + 1198275.0 x_c3_c4 + 80000.0 p_3 <= 1000000.0
  travelDV_c4_c1: tauD_c4 - tauD_c1 + 1100425.0 x_c4_c1 + 80000.0 p_4 <= 1000000.0
  travelDV_c4_c2: tauD_c4 - tauD_c2 + 1128850.0 x_c4_c2 + 80000.0 p_4 <= 1000000.0
  travelDV_c4_c3: tauD_c4 - tauD_c3 + 1198275.0 x_c4_c3 + 80000.0 p_4 <= 1000000.0
  TravelSV_d0_c1: tauS_d0 - tauS_c1 + 1000000.0 z_d0_c1 <= 967125.0
  TravelSV_d0_c2: tauS_d0 - tauS_c2 + 1000000.0 z_d0_c2 <= 994400.0
  TravelSV_d0_c3: tauS_d0 - tauS_c3 + 1000000.0 z_d0_c3 <= 925000.0
  TravelSV_d0_c4: tauS_d0 - tauS_c4 + 1000000.0 z_d0_c4 <= 936700.0
  TravelSV_d0_dN: tauS_d0 - tauS_dN + 1000000.0 z_d0_dN <= 1000000.0
  TravelSV_c1_c2: tauS_c1 - tauS_c2 + 1000000.0 z_c1_c2 <= 891500.0
  TravelSV_c1_c3: tauS_c1 - tauS_c3 + 1000000.0 z_c1_c3 <= 818850.0
  TravelSV_c1_c4: tauS_c1 - tauS_c4 + 1000000.0 z_c1_c4 <= 889575.0
  TravelSV_c1_dN: tauS_c1 - tauS_dN + 1000000.0 z_c1_dN <= 887125.0
  TravelSV_c2_c1: tauS_c2 - tauS_c1 + 1000000.0 z_c2_c1 <= 891500.0
  TravelSV_c2_c3: tauS_c2 - tauS_c3 + 1000000.0 z_c2_c3 <= 843800.0
  TravelSV_c2_c4: tauS_c2 - tauS_c4 + 1000000.0 z_c2_c4 <= 861150.0
  TravelSV_c2_dN: tauS_c2 - tauS_dN + 1000000.0 z_c2_dN <= 914400.0
  TravelSV_c3_c1: tauS_c3 - tauS_c1 + 1000000.0 z_c3_c1 <= 818850.0
  TravelSV_c3_c2: tauS_c3 - tauS_c2 + 1000000.0 z_c3_c2 <= 843800.0
  TravelSV_c3_c4: tauS_c3 - tauS_c4 + 1000000.0 z_c3_c4 <= 791725.0
  TravelSV_c3_dN: tauS_c3 - tauS_dN + 1000000.0 z_c3_dN <= 845000.0
  TravelSV_c4_c1: tauS_c4 - tauS_c1 + 1000000.0 z_c4_c1 <= 889575.0
  TravelSV_c4_c2: tauS_c4 - tauS_c2 + 1000000.0 z_c4_c2 <= 861150.0
  TravelSV_c4_c3: tauS_c4 - tauS_c3 + 1000000.0 z_c4_c3 <= 791725.0
  TravelSV_c4_dN: tauS_c4 - tauS_dN + 1000000.0 z_c4_dN <= 856700.0
  time_window_c1_e: tauD_c1 + 80000.0 o_1 >= 650000.0
  time_window_c1_l: tauD_c1 + 80000.0 o_1 <= 800000.0
  time_window_c2_e: tauD_c2 + 80000.0 o_2 >= 250000.0
  time_window_c2_l: tauD_c2 + 80000.0 o_2 <= 400000.0
  time_window_c3_e: tauD_c3 + 80000.0 o_3 >= 100000.0
  time_window_c3_l: tauD_c3 + 80000.0 o_3 <= 250000.0
  time_window_c4_e: tauD_c4 + 80000.0 o_4 >= 300000.0
  time_window_c4_l: tauD_c4 + 80000.0 o_4 <= 450000.0
  SyncA_c1_c2_c2: 60000.0 o_1 + 1000000.0 x_c1_c2 - tauD_c2 - 28500.0 z_c1_c2 + [ tauS_c2 * z_c1_c2 ] <= 971500.0
  SyncA_c1_c2_c3: 60000.0 o_1 + 1000000.0 x_c1_c2 - tauD_c2 - 101150.0 z_c1_c3 + [ tauS_c3 * z_c1_c3 ] <= 971500.0
  SyncA_c1_c2_c4: 60000.0 o_1 + 1000000.0 x_c1_c2 - tauD_c2 - 30425.0 z_c1_c4 + [ tauS_c4 * z_c1_c4 ] <= 971500.0
  SyncA_c1_c2_dN: 60000.0 o_1 + 1000000.0 x_c1_c2 - tauD_c2 - 32875.0 z_c1_dN + [ tauS_dN * z_c1_dN ] <= 971500.0
  SyncA_c1_c3_c2: 60000.0 o_1 + 1000000.0 x_c1_c3 - tauD_c3 - 28500.0 z_c1_c2 + [ tauS_c2 * z_c1_c2 ] <= 898850.0
  SyncA_c1_c3_c3: 60000.0 o_1 + 1000000.0 x_c1_c3 - tauD_c3 - 101150.0 z_c1_c3 + [ tauS_c3 * z_c1_c3 ] <= 898850.0
  SyncA_c1_c3_c4: 60000.0 o_1 + 1000000.0 x_c1_c3 - tauD_c3 - 30425.0 z_c1_c4 + [ tauS_c4 * z_c1_c4 ] <= 898850.0
  SyncA_c1_c3_dN: 60000.0 o_1 + 1000000.0 x_c1_c3 - tauD_c3 - 32875.0 z_c1_dN + [ tauS_dN * z_c1_dN ] <= 898850.0
  SyncA_c1_c4_c2: 60000.0 o_1 + 1000000.0 x_c1_c4 - tauD_c4 - 28500.0 z_c1_c2 + [ tauS_c2 * z_c1_c2 ] <= 969575.0
  SyncA_c1_c4_c3: 60000.0 o_1 + 1000000.0 x_c1_c4 - tauD_c4 - 101150.0 z_c1_c3 + [ tauS_c3 * z_c1_c3 ] <= 969575.0
  SyncA_c1_c4_c4: 60000.0 o_1 + 1000000.0 x_c1_c4 - tauD_c4 - 30425.0 z_c1_c4 + [ tauS_c4 * z_c1_c4 ] <= 969575.0
  SyncA_c1_c4_dN: 60000.0 o_1 + 1000000.0 x_c1_c4 - tauD_c4 - 32875.0 z_c1_dN + [ tauS_dN * z_c1_dN ] <= 969575.0
  SyncA_c1_dN_c2: 60000.0 o_1 + 1000000.0 x_c1_dN - tauD_dN - 28500.0 z_c1_c2 + [ tauS_c2 * z_c1_c2 ] <= 967125.0
  SyncA_c1_dN_c3: 60000.0 o_1 + 1000000.0 x_c1_dN - tauD_dN - 101150.0 z_c1_c3 + [ tauS_c3 * z_c1_c3 ] <= 967125.0
  SyncA_c1_dN_c4: 60000.0 o_1 + 1000000.0 x_c1_dN - tauD_dN - 30425.0 z_c1_c4 + [ tauS_c4 * z_c1_c4 ] <= 967125.0
  SyncA_c1_dN_dN: 60000.0 o_1 + 1000000.0 x_c1_dN - tauD_dN - 32875.0 z_c1_dN + [ tauS_dN * z_c1_dN ] <= 967125.0
  SyncA_c2_c1_c1: 50000.0 o_2 + 1000000.0 x_c2_c1 - tauD_c1 - 28500.0 z_c2_c1 + [ tauS_c1 * z_c2_c1 ] <= 971500.0
  SyncA_c2_c1_c3: 50000.0 o_2 + 1000000.0 x_c2_c1 - tauD_c1 - 76200.0 z_c2_c3 + [ tauS_c3 * z_c2_c3 ] <= 971500.0
  SyncA_c2_c1_c4: 50000.0 o_2 + 1000000.0 x_c2_c1 - tauD_c1 - 58850.0 z_c2_c4 + [ tauS_c4 * z_c2_c4 ] <= 971500.0
  SyncA_c2_c1_dN: 50000.0 o_2 + 1000000.0 x_c2_c1 - tauD_c1 - 5600.0 z_c2_dN + [ tauS_dN * z_c2_dN ] <= 971500.0
  SyncA_c2_c3_c1: 50000.0 o_2 + 1000000.0 x_c2_c3 - tauD_c3 - 28500.0 z_c2_c1 + [ tauS_c1 * z_c2_c1 ] <= 923800.0
  SyncA_c2_c3_c3: 50000.0 o_2 + 1000000.0 x_c2_c3 - tauD_c3 - 76200.0 z_c2_c3 + [ tauS_c3 * z_c2_c3 ] <= 923800.0
  SyncA_c2_c3_c4: 50000.0 o_2 + 1000000.0 x_c2_c3 - tauD_c3 - 58850.0 z_c2_c4 + [ tauS_c4 * z_c2_c4 ] <= 923800.0
  SyncA_c2_c3_dN: 50000.0 o_2 + 1000000.0 x_c2_c3 - tauD_c3 - 5600.0 z_c2_dN + [ tauS_dN * z_c2_dN ] <= 923800.0
  SyncA_c2_c4_c1: 50000.0 o_2 + 1000000.0 x_c2_c4 - tauD_c4 - 28500.0 z_c2_c1 + [ tauS_c1 * z_c2_c1 ] <= 941150.0
  SyncA_c2_c4_c3: 50000.0 o_2 + 1000000.0 x_c2_c4 - tauD_c4 - 76200.0 z_c2_c3 + [ tauS_c3 * z_c2_c3 ] <= 941150.0
  SyncA_c2_c4_c4: 50000.0 o_2 + 1000000.0 x_c2_c4 - tauD_c4 - 58850.0 z_c2_c4 + [ tauS_c4 * z_c2_c4 ] <= 941150.0
  SyncA_c2_c4_dN: 50000.0 o_2 + 1000000.0 x_c2_c4 - tauD_c4 - 5600.0 z_c2_dN + [ tauS_dN * z_c2_dN ] <= 941150.0
  SyncA_c2_dN_c1: 50000.0 o_2 + 1000000.0 x_c2_dN - tauD_dN - 28500.0 z_c2_c1 + [ tauS_c1 * z_c2_c1 ] <= 994400.0
  SyncA_c2_dN_c3: 50000.0 o_2 + 1000000.0 x_c2_dN - tauD_dN - 76200.0 z_c2_c3 + [ tauS_c3 * z_c2_c3 ] <= 994400.0
  SyncA_c2_dN_c4: 50000.0 o_2 + 1000000.0 x_c2_dN - tauD_dN - 58850.0 z_c2_c4 + [ tauS_c4 * z_c2_c4 ] <= 994400.0
  SyncA_c2_dN_dN: 50000.0 o_2 + 1000000.0 x_c2_dN - tauD_dN - 5600.0 z_c2_dN + [ tauS_dN * z_c2_dN ] <= 994400.0
  SyncA_c3_c1_c1: 70000.0 o_3 + 1000000.0 x_c3_c1 - tauD_c1 - 101150.0 z_c3_c1 + [ tauS_c1 * z_c3_c1 ] <= 898850.0
  SyncA_c3_c1_c2: 70000.0 o_3 + 1000000.0 x_c3_c1 - tauD_c1 - 76200.0 z_c3_c2 + [ tauS_c2 * z_c3_c2 ] <= 898850.0
  SyncA_c3_c1_c4: 70000.0 o_3 + 1000000.0 x_c3_c1 - tauD_c1 - 128275.0 z_c3_c4 + [ tauS_c4 * z_c3_c4 ] <= 898850.0
  SyncA_c3_c1_dN: 70000.0 o_3 + 1000000.0 x_c3_c1 - tauD_c1 - 75000.0 z_c3_dN + [ tauS_dN * z_c3_dN ] <= 898850.0
  SyncA_c3_c2_c1: 70000.0 o_3 + 1000000.0 x_c3_c2 - tauD_c2 - 101150.0 z_c3_c1 + [ tauS_c1 * z_c3_c1 ] <= 923800.0
  SyncA_c3_c2_c2: 70000.0 o_3 + 1000000.0 x_c3_c2 - tauD_c2 - 76200.0 z_c3_c2 + [ tauS_c2 * z_c3_c2 ] <= 923800.0
  SyncA_c3_c2_c4: 70000.0 o_3 + 1000000.0 x_c3_c2 - tauD_c2 - 128275.0 z_c3_c4 + [ tauS_c4 * z_c3_c4 ] <= 923800.0
  SyncA_c3_c2_dN: 70000.0 o_3 + 1000000.0 x_c3_c2 - tauD_c2 - 75000.0 z_c3_dN + [ tauS_dN * z_c3_dN ] <= 923800.0
  SyncA_c3_c4_c1: 70000.0 o_3 + 1000000.0 x_c3_c4 - tauD_c4 - 101150.0 z_c3_c1 + [ tauS_c1 * z_c3_c1 ] <= 871725.0
  SyncA_c3_c4_c2: 70000.0 o_3 + 1000000.0 x_c3_c4 - tauD_c4 - 76200.0 z_c3_c2 + [ tauS_c2 * z_c3_c2 ] <= 871725.0
  SyncA_c3_c4_c4: 70000.0 o_3 + 1000000.0 x_c3_c4 - tauD_c4 - 128275.0 z_c3_c4 + [ tauS_c4 * z_c3_c4 ] <= 871725.0
  SyncA_c3_c4_dN: 70000.0 o_3 + 1000000.0 x_c3_c4 - tauD_c4 - 75000.0 z_c3_dN + [ tauS_dN * z_c3_dN ] <= 871725.0
  SyncA_c3_dN_c1: 70000.0 o_3 + 1000000.0 x_c3_dN - tauD_dN - 101150.0 z_c3_c1 + [ tauS_c1 * z_c3_c1 ] <= 925000.0
  SyncA_c3_dN_c2: 70000.0 o_3 + 1000000.0 x_c3_dN - tauD_dN - 76200.0 z_c3_c2 + [ tauS_c2 * z_c3_c2 ] <= 925000.0
  SyncA_c3_dN_c4: 70000.0 o_3 + 1000000.0 x_c3_dN - tauD_dN - 128275.0 z_c3_c4 + [ tauS_c4 * z_c3_c4 ] <= 925000.0
  SyncA_c3_dN_dN: 70000.0 o_3 + 1000000.0 x_c3_dN - tauD_dN - 75000.0 z_c3_dN + [ tauS_dN * z_c3_dN ] <= 925000.0
  SyncA_c4_c1_c1: 70000.0 o_4 + 1000000.0 x_c4_c1 - tauD_c1 - 30425.0 z_c4_c1 + [ tauS_c1 * z_c4_c1 ] <= 969575.0
  SyncA_c4_c1_c2: 70000.0 o_4 + 1000000.0 x_c4_c1 - tauD_c1 - 58850.0 z_c4_c2 + [ tauS_c2 * z_c4_c2 ] <= 969575.0
  SyncA_c4_c1_c3: 70000.0 o_4 + 1000000.0 x_c4_c1 - tauD_c1 - 128275.0 z_c4_c3 + [ tauS_c3 * z_c4_c3 ] <= 969575.0
  SyncA_c4_c1_dN: 70000.0 o_4 + 1000000.0 x_c4_c1 - tauD_c1 - 63300.0 z_c4_dN + [ tauS_dN * z_c4_dN ] <= 969575.0
  SyncA_c4_c2_c1: 70000.0 o_4 + 1000000.0 x_c4_c2 - tauD_c2 - 30425.0 z_c4_c1 + [ tauS_c1 * z_c4_c1 ] <= 941150.0
  SyncA_c4_c2_c2: 70000.0 o_4 + 1000000.0 x_c4_c2 - tauD_c2 - 58850.0 z_c4_c2 + [ tauS_c2 * z_c4_c2 ] <= 941150.0
  SyncA_c4_c2_c3: 70000.0 o_4 + 1000000.0 x_c4_c2 - tauD_c2 - 128275.0 z_c4_c3 + [ tauS_c3 * z_c4_c3 ] <= 941150.0
  SyncA_c4_c2_dN: 70000.0 o_4 + 1000000.0 x_c4_c2 - tauD_c2 - 63300.0 z_c4_dN + [ tauS_dN * z_c4_dN ] <= 941150.0
  SyncA_c4_c3_c1: 70000.0 o_4 + 1000000.0 x_c4_c3 - tauD_c3 - 30425.0 z_c4_c1 + [ tauS_c1 * z_c4_c1 ] <= 871725.0
  SyncA_c4_c3_c2: 70000.0 o_4 + 1000000.0 x_c4_c3 - tauD_c3 - 58850.0 z_c4_c2 + [ tauS_c2 * z_c4_c2 ] <= 871725.0
  SyncA_c4_c3_c3: 70000.0 o_4 + 1000000.0 x_c4_c3 - tauD_c3 - 128275.0 z_c4_c3 + [ tauS_c3 * z_c4_c3 ] <= 871725.0
  SyncA_c4_c3_dN: 70000.0 o_4 + 1000000.0 x_c4_c3 - tauD_c3 - 63300.0 z_c4_dN + [ tauS_dN * z_c4_dN ] <= 871725.0
  SyncA_c4_dN_c1: 70000.0 o_4 + 1000000.0 x_c4_dN - tauD_dN - 30425.0 z_c4_c1 + [ tauS_c1 * z_c4_c1 ] <= 936700.0
  SyncA_c4_dN_c2: 70000.0 o_4 + 1000000.0 x_c4_dN - tauD_dN - 58850.0 z_c4_c2 + [ tauS_c2 * z_c4_c2 ] <= 936700.0
  SyncA_c4_dN_c3: 70000.0 o_4 + 1000000.0 x_c4_dN - tauD_dN - 128275.0 z_c4_c3 + [ tauS_c3 * z_c4_c3 ] <= 936700.0
  SyncA_c4_dN_dN: 70000.0 o_4 + 1000000.0 x_c4_dN - tauD_dN - 63300.0 z_c4_dN + [ tauS_dN * z_c4_dN ] <= 936700.0
  SVFirst_c1_c2: tauS_c2 - tauD_c1 + 60000.0 o_1 - 1000000.0 z_c1_c2 >= -831500.0
  SVFirst_c1_c3: tauS_c3 - tauD_c1 + 60000.0 o_1 - 1000000.0 z_c1_c3 >= -758850.0
  SVFirst_c1_c4: tauS_c4 - tauD_c1 + 60000.0 o_1 - 1000000.0 z_c1_c4 >= -829575.0
  SVFirst_c1_dN:  tauS_dN - tauD_c1 + 60000.0 o_1 - 1000000.0 z_c1_dN >= -827125.0
  SVFirst_c2_c1: tauS_c1 - tauD_c2 + 50000.0 o_2 - 1000000.0 z_c2_c1 >= -841500.0
  SVFirst_c2_c3: tauS_c3 - tauD_c2 + 50000.0 o_2 - 1000000.0 z_c2_c3 >= -793800.0
  SVFirst_c2_c4: tauS_c4 - tauD_c2 + 50000.0 o_2 - 1000000.0 z_c2_c4 >= -811150.0
  SVFirst_c2_dN:  tauS_dN - tauD_c2 + 50000.0 o_2 - 1000000.0 z_c2_dN >= -864400.0
  SVFirst_c3_c1: tauS_c1 - tauD_c3 + 70000.0 o_3 - 1000000.0 z_c3_c1 >= -748850.0
  SVFirst_c3_c2: tauS_c2 - tauD_c3 + 70000.0 o_3 - 1000000.0 z_c3_c2 >= -773800.0
  SVFirst_c3_c4: tauS_c4 - tauD_c3 + 70000.0 o_3 - 1000000.0 z_c3_c4 >= -721725.0
  SVFirst_c3_dN:  tauS_dN - tauD_c3 + 70000.0 o_3 - 1000000.0 z_c3_dN >= -775000.0
  SVFirst_c4_c1: tauS_c1 - tauD_c4 + 70000.0 o_4 - 1000000.0 z_c4_c1 >= -819575.0
  SVFirst_c4_c2: tauS_c2 - tauD_c4 + 70000.0 o_4 - 1000000.0 z_c4_c2 >= -791150.0
  SVFirst_c4_c3: tauS_c3 - tauD_c4 + 70000.0 o_4 - 1000000.0 z_c4_c3 >= -721725.0
  SVFirst_c4_dN:  tauS_dN - tauD_c4 + 70000.0 o_4 - 1000000.0 z_c4_dN >= -786700.0
  Precedence_Swap_c1:  p_1 - z_d0_c1 - z_c2_c1 - z_c3_c1 - z_c4_c1 = 0
  Precedence_Swap_c2:  p_2 - z_d0_c2 - z_c1_c2 - z_c3_c2 - z_c4_c2 = 0
  Precedence_Swap_c3:  p_3 - z_d0_c3 - z_c1_c3 - z_c2_c3 - z_c4_c3 = 0
  Precedence_Swap_c4:  p_4 - z_d0_c4 - z_c1_c4 - z_c2_c4 - z_c3_c4 = 0
  Order_c1:  o_1 - p_1 <= 0
  Order_c2:  o_2 - p_2 <= 0
  Order_c3:  o_3 - p_3 <= 0
  Order_c4:  o_4 - p_4 <= 0
  WorkingTimeS_c1:  tauS_c1 <= 887125.0
  WorkingTimeS_c2:  tauS_c2 <= 914400.0
  WorkingTimeS_c3:  tauS_c3 <= 845000.0
  WorkingTimeS_c4:  tauS_c4 <= 856700.0
  Freight_c1_c2:  k_c2 - k_c1 + 1000000.0 x_c1_c2 <= 980000.0
  Freight_c1_c3:  k_c3 - k_c1 + 1000000.0 x_c1_c3 <= 980000.0
  Freight_c1_c4:  k_c4 - k_c1 + 1000000.0 x_c1_c4 <= 980000.0
  Freight_c1_dN:  k_dN - k_c1 + 1000000.0 x_c1_dN <= 980000.0
  Freight_c2_c1:  k_c1 - k_c2 + 1000000.0 x_c2_c1 <= 970000.0
  Freight_c2_c3:  k_c3 - k_c2 + 1000000.0 x_c2_c3 <= 970000.0
  Freight_c2_c4:  k_c4 - k_c2 + 1000000.0 x_c2_c4 <= 970000.0
  Freight_c2_dN:  k_dN - k_c2 + 1000000.0 x_c2_dN <= 970000.0
  Freight_c3_c1:  k_c1 - k_c3 + 1000000.0 x_c3_c1 <= 970000.0
  Freight_c3_c2:  k_c2 - k_c3 + 1000000.0 x_c3_c2 <= 970000.0
  Freight_c3_c4:  k_c4 - k_c3 + 1000000.0 x_c3_c4 <= 970000.0
  Freight_c3_dN:  k_dN - k_c3 + 1000000.0 x_c3_dN <= 970000.0
  Freight_c4_c1:  k_c1 - k_c4 + 1000000.0 x_c4_c1 <= 950000.0
  Freight_c4_c2:  k_c2 - k_c4 + 1000000.0 x_c4_c2 <= 950000.0
  Freight_c4_c3:  k_c3 - k_c4 + 1000000.0 x_c4_c3 <= 950000.0
  Freight_c4_dN:  k_dN - k_c4 + 1000000.0 x_c4_dN <= 950000.0
  FuelDV_d0_c1:  phi_c1 - phi_d0 + 68797.0 x_d0_c1 <= 60000.0
  FuelDV_d0_c2:  phi_c2 - phi_d0 + 61499.0 x_d0_c2 <= 60000.0
  FuelDV_d0_c3:  phi_c3 - phi_d0 + 80070.0 x_d0_c3 <= 60000.0
  FuelDV_d0_c4:  phi_c4 - phi_d0 + 76939.0 x_d0_c4 <= 60000.0
  FuelDV_c1_c2:  phi_c2 - phi_c1 + 67627.0 x_c1_c2 <= 60000.0
  FuelDV_c1_c3:  phi_c3 - phi_c1 + 87068.0 x_c1_c3 <= 60000.0
  FuelDV_c1_c4:  phi_c4 - phi_c1 + 68142.0 x_c1_c4 <= 60000.0
  FuelDV_c1_dN:  phi_dN - phi_c1 + 68797.0 x_c1_dN <= 60000.0
  FuelDV_c2_c1:  phi_c1 - phi_c2 + 67627.0 x_c2_c1 <= 60000.0
  FuelDV_c2_c3:  phi_c3 - phi_c2 + 80391.0 x_c2_c3 <= 60000.0
  FuelDV_c2_c4:  phi_c4 - phi_c2 + 75748.0 x_c2_c4 <= 60000.0
  FuelDV_c2_dN:  phi_dN - phi_c2 + 61499.0 x_c2_dN <= 60000.0
  FuelDV_c3_c1:  phi_c1 - phi_c3 + 87068.0 x_c3_c1 <= 60000.0
  FuelDV_c3_c2:  phi_c2 - phi_c3 + 80391.0 x_c3_c2 <= 60000.0
  FuelDV_c3_c4:  phi_c4 - phi_c3 + 94326.0 x_c3_c4 <= 60000.0
  FuelDV_c3_dN:  phi_dN - phi_c3 + 80070.0 x_c3_dN <= 60000.0
  FuelDV_c4_c1:  phi_c1 - phi_c4 + 68142.0 x_c4_c1 <= 60000.0
  FuelDV_c4_c2:  phi_c2 - phi_c4 + 75748.0 x_c4_c2 <= 60000.0
  FuelDV_c4_c3:  phi_c3 - phi_c4 + 94326.0 x_c4_c3 <= 60000.0
  FuelDV_c4_dN:  phi_dN - phi_c4 + 76939.0 x_c4_dN <= 60000.0
  WorkingTimeD_c1:  tauD_c1 + 80000.0 p_1 <= 907125.0
  WorkingTimeD_c2:  tauD_c2 + 80000.0 p_2 <= 944400.0
  WorkingTimeD_c3:  tauD_c3 + 80000.0 p_3 <= 855000.0
  WorkingTimeD_c4:  tauD_c4 + 80000.0 p_4 <= 866700.0
Bounds
0 <= k_c1 <= 1000000.0
0 <= k_c2 <= 1000000.0
0 <= k_c3 <= 1000000.0
0 <= k_c4 <= 1000000.0
0 <= k_dN <= 1000000.0
0 <= phi_c1 <= 60000.0
0 <= phi_c2 <= 60000.0
0 <= phi_c3 <= 60000.0
0 <= phi_c4 <= 60000.0
0 <= phi_d0 <= 60000.0
0 <= phi_dN <= 60000.0
0 <= tauD_c1 <= 1000000.0
0 <= tauD_c2 <= 1000000.0
0 <= tauD_c3 <= 1000000.0
0 <= tauD_c4 <= 1000000.0
0 <= tauD_d0 <= 1000000.0
0 <= tauD_dN <= 1000000.0
0 <= tauS_c1 <= 1000000.0
0 <= tauS_c2 <= 1000000.0
0 <= tauS_c3 <= 1000000.0
0 <= tauS_c4 <= 1000000.0
0 <= tauS_d0 <= 1000000.0
0 <= tauS_dN <= 1000000.0
Generals
  k_c1
  k_c2
  k_c3
  k_c4
  k_dN
  phi_c1
  phi_c2
  phi_c3
  phi_c4
  phi_d0
  phi_dN
  tauD_c1
  tauD_c2
  tauD_c3
  tauD_c4
  tauD_d0
  tauD_dN
  tauS_c1
  tauS_c2
  tauS_c3
  tauS_c4
  tauS_d0
  tauS_dN
Binary
  o_1
  o_2
  o_3
  o_4
  p_1
  p_2
  p_3
  p_4
  x_c1_c2
  x_c1_c3
  x_c1_c4
  x_c1_dN
  x_c2_c1
  x_c2_c3
  x_c2_c4
  x_c2_dN
  x_c3_c1
  x_c3_c2
  x_c3_c4
  x_c3_dN
  x_c4_c1
  x_c4_c2
  x_c4_c3
  x_c4_dN
  x_d0_c1
  x_d0_c2
  x_d0_c3
  x_d0_c4
  z_c1_c2
  z_c1_c3
  z_c1_c4
  z_c1_dN
  z_c2_c1
  z_c2_c3
  z_c2_c4
  z_c2_dN
  z_c3_c1
  z_c3_c2
  z_c3_c4
  z_c3_dN
  z_c4_c1
  z_c4_c2
  z_c4_c3
  z_c4_dN
  z_d0_c1
  z_d0_c2
  z_d0_c3
  z_d0_c4
End
