VRPTWMS/instances/mip/fuel/Comparison/N4-C_DV100-C_SV30_F6_13_No_1.log

Gurobi 6.0.4 (win64) logging started 06/21/15 19:05:31

Read LP format model from file C:\MT\repository\VRPTWMS\instances\mip\fuel\N4-C_DV100-C_SV30_F6_13_No_1.lp
Reading time = 0.00 seconds
(null): 129 rows, 72 columns, 447 nonzeros
Optimize a model with 129 rows, 72 columns and 447 nonzeros
Model has 64 quadratic constraints
Coefficient statistics:
  Matrix range    [1e+00, 1e+06]
  Objective range [2e+04, 1e+07]
  Bounds range    [1e+00, 1e+06]
  RHS range       [1e+00, 1e+06]
Presolve removed 42 rows and 22 columns
Presolve time: 0.00s
Presolved: 171 rows, 92 columns, 756 nonzeros
Variable types: 42 continuous, 50 integer (37 binary)
Found heuristic solution: objective 2.113360e+07

Root relaxation: objective 1.959635e+07, 14 iterations, 0.00 seconds

    Nodes    |    Current Node    |     Objective Bounds      |     Work
 Expl Unexpl |  Obj  Depth IntInf | Incumbent    BestBd   Gap | It/Node Time

     0     0 1.9596e+07    0    6 2.1134e+07 1.9596e+07  7.27%     -    0s
*    0     0               0    2.111100e+07 2.1111e+07  0.00%     -    0s

Cutting planes:
  Learned: 1
  MIR: 1

Explored 0 nodes (28 simplex iterations) in 0.01 seconds
Thread count was 2 (of 4 available processors)

Optimal solution found (tolerance 1.00e-04)
Best objective 2.111100000000e+07, best bound 2.111100000000e+07, gap 0.0%
k_c1	20000.0
k_c2	919999.9999999991
k_c3	1000000.0
k_c4	889999.9999999991
k_dN	-0.0
o_1	0.0
o_2	-0.0
o_3	-0.0
o_4	-0.0
p_1	0.0
p_2	-0.0
p_3	-0.0
p_4	-0.0
phi_c1	8797.0
phi_c2	57002.0
phi_c3	39929.999999999985
phi_c4	16939.0
phi_d0	60000.0
phi_dN	-0.0
tauD_c1	650000.0
tauD_c2	250000.0
tauD_c3	100000.0
tauD_c4	358849.99999999994
tauD_d0	-0.0
tauD_dN	1000000.0
tauS_c1	-0.0
tauS_c2	-0.0
tauS_c3	-0.0
tauS_c4	-0.0
tauS_d0	-0.0
tauS_dN	170000.0
x_c1_dN	1.0
x_c2_c4	1.0
x_c3_dN	1.0
x_c4_c1	1.0
x_d0_c2	1.0
x_d0_c3	1.0
